
******************************************************************************
This program contains Ipopt, a library for large-scale nonlinear optimization.
 Ipopt is released as open source code under the Eclipse Public License (EPL).
         For more information visit http://projects.coin-or.org/Ipopt

This version of Ipopt was compiled from source code available at
    https://github.com/IDAES/Ipopt as part of the Institute for the Design of
    Advanced Energy Systems Process Systems Engineering Framework (IDAES PSE
    Framework) Copyright (c) 2018-2019. See https://github.com/IDAES/idaes-pse.

This version of Ipopt was compiled using HSL, a collection of Fortran codes
    for large-scale scientific computation.  All technical papers, sales and
    publicity material resulting from use of the HSL codes within IPOPT must
    contain the following acknowledgement:
        HSL, a collection of Fortran codes for large-scale scientific
        computation. See http://www.hsl.rl.ac.uk.
******************************************************************************

This is Ipopt version 3.13.2, running with linear solver ma27.

Number of nonzeros in equality constraint Jacobian...:     1210
Number of nonzeros in inequality constraint Jacobian.:        0
Number of nonzeros in Lagrangian Hessian.............:     1376

Total number of variables............................:      480
                     variables with only lower bounds:      128
                variables with lower and upper bounds:      288
                     variables with only upper bounds:        0
Total number of equality constraints.................:      477
Total number of inequality constraints...............:        0
        inequality constraints with only lower bounds:        0
   inequality constraints with lower and upper bounds:        0
        inequality constraints with only upper bounds:        0

iter    objective    inf_pr   inf_du lg(mu)  ||d||  lg(rg) alpha_du alpha_pr  ls
   0  0.0000000e+00 1.26e+00 1.42e-14  -1.0 0.00e+00    -  0.00e+00 0.00e+00   0
   1  1.1500745e-01 2.69e-01 7.60e+02  -1.0 4.07e+04    -  6.55e-01 9.90e-01h  1
   2  1.1950478e-01 1.75e+00 2.74e+02  -1.0 2.70e+03    -  7.16e-01 9.90e-01h  1
   3  2.2398709e+00 6.74e-02 5.63e+04  -1.0 1.30e+05    -  7.50e-01 9.90e-01h  1
   4  2.0915093e+00 6.96e-02 1.80e+06  -1.0 5.62e+06    -  1.92e-01 9.76e-03f  5
   5  3.4516181e+00 5.03e-02 3.75e+06  -1.0 6.35e+04  -4.0 7.77e-01 4.95e-01h  2
   6  5.3348195e+00 3.57e-01 1.95e+06  -1.0 1.15e+05  -4.5 9.04e-01 9.90e-01h  1
   7  4.7906839e+00 3.68e-03 3.36e+07  -1.0 2.44e+04  -5.0 9.73e-01 9.90e-01h  1
   8  4.7834826e+00 3.68e-05 2.54e+05  -1.0 8.16e+02  -5.4 9.90e-01 9.90e-01h  1
   9  4.7833998e+00 5.54e-09 1.38e+04  -3.8 1.17e+01  -5.9 1.00e+00 1.00e+00h  1
In iteration 9, 32 Slacks too small, adjusting variable bounds
iter    objective    inf_pr   inf_du lg(mu)  ||d||  lg(rg) alpha_du alpha_pr  ls
  10  4.3888323e+00 1.19e-02 1.22e+11  -5.7 5.20e+04    -  9.50e-01 1.00e+00f  1
  11  4.3715972e+00 6.14e-05 1.56e-01  -5.7 7.80e+03    -  1.00e+00 1.00e+00h  1
  12  4.3711036e+00 2.55e-07 3.05e-05  -5.7 2.50e+02    -  1.00e+00 1.00e+00h  1
  13  4.3711024e+00 9.88e-12 1.25e-05  -8.6 2.70e-01    -  1.00e+00 1.00e+00h  1

Number of Iterations....: 13

                                   (scaled)                 (unscaled)
Objective...............:   4.3711023803391864e+00    4.3711023803391864e+00
Dual infeasibility......:   1.2457370758056641e-05    1.2457370758056641e-05
Constraint violation....:   9.8849817220525438e-12    9.8849817220525438e-12
Complementarity.........:   2.5066400554678011e-09    2.5066400554678011e-09
Overall NLP error.......:   7.3575914060649386e-11    1.2457370758056641e-05


Number of objective function evaluations             = 21
Number of objective gradient evaluations             = 14
Number of equality constraint evaluations            = 21
Number of inequality constraint evaluations          = 0
Number of equality constraint Jacobian evaluations   = 14
Number of inequality constraint Jacobian evaluations = 0
Number of Lagrangian Hessian evaluations             = 13
Total CPU secs in IPOPT (w/o function evaluations)   =      0.044
Total CPU secs in NLP function evaluations           =      0.382

EXIT: Optimal Solution Found.
